Ba1 Sn1 O3                              
   1.00000000000000     
     4.1337001313058357   -0.0000000048148793   -0.0000000037989017
    -0.0000000044121481    4.1337000958320562    0.0000000037505260
    -0.0000000041604079    0.0000000037357250    4.1337001539872915
   Ba   Sn   O 
     1     1     3
Direct
  0.4999999777070997  0.4999999464436305  0.4999999786513231
  0.0000000968695050  0.0000002365650285  0.0000000945421441
  0.4999999590596608 -0.0000000414245216 -0.0000000172024893
 -0.0000000168187692  0.4999999001311221 -0.0000000164417518
 -0.0000000168174963 -0.0000000417152593  0.4999999604507739
 
  0.00000000E+00  0.00000000E+00  0.00000000E+00
  0.00000000E+00  0.00000000E+00  0.00000000E+00
  0.00000000E+00  0.00000000E+00  0.00000000E+00
  0.00000000E+00  0.00000000E+00  0.00000000E+00
  0.00000000E+00  0.00000000E+00  0.00000000E+00
