mg3 sb2                                 
   1.00000000000000     
     4.5592748650423323    0.0000003130074344    0.0000000767139823
    -2.2796371618350326    3.9484480695620783   -0.0000000529323419
     0.0000001172744855   -0.0000000238841975    7.1690170552685846
   Sb   Mg
     2     3
Direct
  0.3333333196747507  0.6666666592294125  0.2236012712463686
  0.6666666299893960  0.3333333275072004  0.7763987021506902
 -0.0000000206631050 -0.0000000053314479 -0.0000000131939264
  0.3333332699076347  0.6666667030020134  0.6329210787338849
  0.6666666790913351  0.3333332835928187  0.3670788950629771
 
  0.00000000E+00  0.00000000E+00  0.00000000E+00
  0.00000000E+00  0.00000000E+00  0.00000000E+00
  0.00000000E+00  0.00000000E+00  0.00000000E+00
  0.00000000E+00  0.00000000E+00  0.00000000E+00
  0.00000000E+00  0.00000000E+00  0.00000000E+00
