iron persulfide
1.0
        5.4169998169         0.0000000000         0.0000000000
        0.0000000000         5.4169998169         0.0000000000
        0.0000000000         0.0000000000         5.4169998169
   Fe    S
    4    8
Direct
     0.001000000         0.002000000         0.003000000
     0.496599993         0.000100000         0.503600002
     0.500099998         0.501999996         0.001100000
     0.999400014         0.501299969         0.503799953
     0.385700008         0.383199980         0.384000005
     0.114900000         0.611400018         0.884599946
     0.885400015         0.115700003         0.614299992
     0.615300012         0.886499989         0.114099997
     0.615100017         0.613200018         0.613699962
     0.885400015         0.381800013         0.114900000
     0.114699994         0.885600010         0.384100002
     0.385700008         0.116099993         0.884199956
