Zn2 O2                                  
   1.00000000000000     
     3.2366432970294197   -0.0000040526096734   -0.0000000082474572
    -1.6183251632896736    2.8030131691847124   -0.0000000084746375
    -0.0000000135244893   -0.0000000214842060    5.2218274803571081
   Zn   O 
     2     2
Direct
  0.3333337140814221  0.6666662833922044  0.0017107926342102
  0.6666662868643787  0.3333337175024061  0.5017107926351565
  0.3333336024136221  0.6666663848494294  0.3807892073660572
  0.6666663966405852  0.3333336142559598  0.8807892073645766
 
  0.00000000E+00  0.00000000E+00  0.00000000E+00
  0.00000000E+00  0.00000000E+00  0.00000000E+00
  0.00000000E+00  0.00000000E+00  0.00000000E+00
  0.00000000E+00  0.00000000E+00  0.00000000E+00
